c *********************************
c * Circuit generated by BenCGen
c *
c * Parity_452
c *
c * Ports with 1 gate(s): 1
c * Ports with 2 gate(s): 452
c * Total gates: 453
c *********************************
p cnf 905 1809
1 455 0
-1 -455 0
1 -454 0
455 -454 0
-1 -455 454 0
1 2 -456 0
-1 2 456 0
1 -2 456 0
-1 -2 -456 0
3 4 -457 0
-3 4 457 0
3 -4 457 0
-3 -4 -457 0
5 6 -458 0
-5 6 458 0
5 -6 458 0
-5 -6 -458 0
7 8 -459 0
-7 8 459 0
7 -8 459 0
-7 -8 -459 0
9 10 -460 0
-9 10 460 0
9 -10 460 0
-9 -10 -460 0
11 12 -461 0
-11 12 461 0
11 -12 461 0
-11 -12 -461 0
13 14 -462 0
-13 14 462 0
13 -14 462 0
-13 -14 -462 0
15 16 -463 0
-15 16 463 0
15 -16 463 0
-15 -16 -463 0
17 18 -464 0
-17 18 464 0
17 -18 464 0
-17 -18 -464 0
19 20 -465 0
-19 20 465 0
19 -20 465 0
-19 -20 -465 0
21 22 -466 0
-21 22 466 0
21 -22 466 0
-21 -22 -466 0
23 24 -467 0
-23 24 467 0
23 -24 467 0
-23 -24 -467 0
25 26 -468 0
-25 26 468 0
25 -26 468 0
-25 -26 -468 0
27 28 -469 0
-27 28 469 0
27 -28 469 0
-27 -28 -469 0
29 30 -470 0
-29 30 470 0
29 -30 470 0
-29 -30 -470 0
31 32 -471 0
-31 32 471 0
31 -32 471 0
-31 -32 -471 0
33 34 -472 0
-33 34 472 0
33 -34 472 0
-33 -34 -472 0
35 36 -473 0
-35 36 473 0
35 -36 473 0
-35 -36 -473 0
37 38 -474 0
-37 38 474 0
37 -38 474 0
-37 -38 -474 0
39 40 -475 0
-39 40 475 0
39 -40 475 0
-39 -40 -475 0
41 42 -476 0
-41 42 476 0
41 -42 476 0
-41 -42 -476 0
43 44 -477 0
-43 44 477 0
43 -44 477 0
-43 -44 -477 0
45 46 -478 0
-45 46 478 0
45 -46 478 0
-45 -46 -478 0
47 48 -479 0
-47 48 479 0
47 -48 479 0
-47 -48 -479 0
49 50 -480 0
-49 50 480 0
49 -50 480 0
-49 -50 -480 0
51 52 -481 0
-51 52 481 0
51 -52 481 0
-51 -52 -481 0
53 54 -482 0
-53 54 482 0
53 -54 482 0
-53 -54 -482 0
55 56 -483 0
-55 56 483 0
55 -56 483 0
-55 -56 -483 0
57 58 -484 0
-57 58 484 0
57 -58 484 0
-57 -58 -484 0
59 60 -485 0
-59 60 485 0
59 -60 485 0
-59 -60 -485 0
61 62 -486 0
-61 62 486 0
61 -62 486 0
-61 -62 -486 0
63 64 -487 0
-63 64 487 0
63 -64 487 0
-63 -64 -487 0
65 66 -488 0
-65 66 488 0
65 -66 488 0
-65 -66 -488 0
67 68 -489 0
-67 68 489 0
67 -68 489 0
-67 -68 -489 0
69 70 -490 0
-69 70 490 0
69 -70 490 0
-69 -70 -490 0
71 72 -491 0
-71 72 491 0
71 -72 491 0
-71 -72 -491 0
73 74 -492 0
-73 74 492 0
73 -74 492 0
-73 -74 -492 0
75 76 -493 0
-75 76 493 0
75 -76 493 0
-75 -76 -493 0
77 78 -494 0
-77 78 494 0
77 -78 494 0
-77 -78 -494 0
79 80 -495 0
-79 80 495 0
79 -80 495 0
-79 -80 -495 0
81 82 -496 0
-81 82 496 0
81 -82 496 0
-81 -82 -496 0
83 84 -497 0
-83 84 497 0
83 -84 497 0
-83 -84 -497 0
85 86 -498 0
-85 86 498 0
85 -86 498 0
-85 -86 -498 0
87 88 -499 0
-87 88 499 0
87 -88 499 0
-87 -88 -499 0
89 90 -500 0
-89 90 500 0
89 -90 500 0
-89 -90 -500 0
91 92 -501 0
-91 92 501 0
91 -92 501 0
-91 -92 -501 0
93 94 -502 0
-93 94 502 0
93 -94 502 0
-93 -94 -502 0
95 96 -503 0
-95 96 503 0
95 -96 503 0
-95 -96 -503 0
97 98 -504 0
-97 98 504 0
97 -98 504 0
-97 -98 -504 0
99 100 -505 0
-99 100 505 0
99 -100 505 0
-99 -100 -505 0
101 102 -506 0
-101 102 506 0
101 -102 506 0
-101 -102 -506 0
103 104 -507 0
-103 104 507 0
103 -104 507 0
-103 -104 -507 0
105 106 -508 0
-105 106 508 0
105 -106 508 0
-105 -106 -508 0
107 108 -509 0
-107 108 509 0
107 -108 509 0
-107 -108 -509 0
109 110 -510 0
-109 110 510 0
109 -110 510 0
-109 -110 -510 0
111 112 -511 0
-111 112 511 0
111 -112 511 0
-111 -112 -511 0
113 114 -512 0
-113 114 512 0
113 -114 512 0
-113 -114 -512 0
115 116 -513 0
-115 116 513 0
115 -116 513 0
-115 -116 -513 0
117 118 -514 0
-117 118 514 0
117 -118 514 0
-117 -118 -514 0
119 120 -515 0
-119 120 515 0
119 -120 515 0
-119 -120 -515 0
121 122 -516 0
-121 122 516 0
121 -122 516 0
-121 -122 -516 0
123 124 -517 0
-123 124 517 0
123 -124 517 0
-123 -124 -517 0
125 126 -518 0
-125 126 518 0
125 -126 518 0
-125 -126 -518 0
127 128 -519 0
-127 128 519 0
127 -128 519 0
-127 -128 -519 0
129 130 -520 0
-129 130 520 0
129 -130 520 0
-129 -130 -520 0
131 132 -521 0
-131 132 521 0
131 -132 521 0
-131 -132 -521 0
133 134 -522 0
-133 134 522 0
133 -134 522 0
-133 -134 -522 0
135 136 -523 0
-135 136 523 0
135 -136 523 0
-135 -136 -523 0
137 138 -524 0
-137 138 524 0
137 -138 524 0
-137 -138 -524 0
139 140 -525 0
-139 140 525 0
139 -140 525 0
-139 -140 -525 0
141 142 -526 0
-141 142 526 0
141 -142 526 0
-141 -142 -526 0
143 144 -527 0
-143 144 527 0
143 -144 527 0
-143 -144 -527 0
145 146 -528 0
-145 146 528 0
145 -146 528 0
-145 -146 -528 0
147 148 -529 0
-147 148 529 0
147 -148 529 0
-147 -148 -529 0
149 150 -530 0
-149 150 530 0
149 -150 530 0
-149 -150 -530 0
151 152 -531 0
-151 152 531 0
151 -152 531 0
-151 -152 -531 0
153 154 -532 0
-153 154 532 0
153 -154 532 0
-153 -154 -532 0
155 156 -533 0
-155 156 533 0
155 -156 533 0
-155 -156 -533 0
157 158 -534 0
-157 158 534 0
157 -158 534 0
-157 -158 -534 0
159 160 -535 0
-159 160 535 0
159 -160 535 0
-159 -160 -535 0
161 162 -536 0
-161 162 536 0
161 -162 536 0
-161 -162 -536 0
163 164 -537 0
-163 164 537 0
163 -164 537 0
-163 -164 -537 0
165 166 -538 0
-165 166 538 0
165 -166 538 0
-165 -166 -538 0
167 168 -539 0
-167 168 539 0
167 -168 539 0
-167 -168 -539 0
169 170 -540 0
-169 170 540 0
169 -170 540 0
-169 -170 -540 0
171 172 -541 0
-171 172 541 0
171 -172 541 0
-171 -172 -541 0
173 174 -542 0
-173 174 542 0
173 -174 542 0
-173 -174 -542 0
175 176 -543 0
-175 176 543 0
175 -176 543 0
-175 -176 -543 0
177 178 -544 0
-177 178 544 0
177 -178 544 0
-177 -178 -544 0
179 180 -545 0
-179 180 545 0
179 -180 545 0
-179 -180 -545 0
181 182 -546 0
-181 182 546 0
181 -182 546 0
-181 -182 -546 0
183 184 -547 0
-183 184 547 0
183 -184 547 0
-183 -184 -547 0
185 186 -548 0
-185 186 548 0
185 -186 548 0
-185 -186 -548 0
187 188 -549 0
-187 188 549 0
187 -188 549 0
-187 -188 -549 0
189 190 -550 0
-189 190 550 0
189 -190 550 0
-189 -190 -550 0
191 192 -551 0
-191 192 551 0
191 -192 551 0
-191 -192 -551 0
193 194 -552 0
-193 194 552 0
193 -194 552 0
-193 -194 -552 0
195 196 -553 0
-195 196 553 0
195 -196 553 0
-195 -196 -553 0
197 198 -554 0
-197 198 554 0
197 -198 554 0
-197 -198 -554 0
199 200 -555 0
-199 200 555 0
199 -200 555 0
-199 -200 -555 0
201 202 -556 0
-201 202 556 0
201 -202 556 0
-201 -202 -556 0
203 204 -557 0
-203 204 557 0
203 -204 557 0
-203 -204 -557 0
205 206 -558 0
-205 206 558 0
205 -206 558 0
-205 -206 -558 0
207 208 -559 0
-207 208 559 0
207 -208 559 0
-207 -208 -559 0
209 210 -560 0
-209 210 560 0
209 -210 560 0
-209 -210 -560 0
211 212 -561 0
-211 212 561 0
211 -212 561 0
-211 -212 -561 0
213 214 -562 0
-213 214 562 0
213 -214 562 0
-213 -214 -562 0
215 216 -563 0
-215 216 563 0
215 -216 563 0
-215 -216 -563 0
217 218 -564 0
-217 218 564 0
217 -218 564 0
-217 -218 -564 0
219 220 -565 0
-219 220 565 0
219 -220 565 0
-219 -220 -565 0
221 222 -566 0
-221 222 566 0
221 -222 566 0
-221 -222 -566 0
223 224 -567 0
-223 224 567 0
223 -224 567 0
-223 -224 -567 0
225 226 -568 0
-225 226 568 0
225 -226 568 0
-225 -226 -568 0
227 228 -569 0
-227 228 569 0
227 -228 569 0
-227 -228 -569 0
229 230 -570 0
-229 230 570 0
229 -230 570 0
-229 -230 -570 0
231 232 -571 0
-231 232 571 0
231 -232 571 0
-231 -232 -571 0
233 234 -572 0
-233 234 572 0
233 -234 572 0
-233 -234 -572 0
235 236 -573 0
-235 236 573 0
235 -236 573 0
-235 -236 -573 0
237 238 -574 0
-237 238 574 0
237 -238 574 0
-237 -238 -574 0
239 240 -575 0
-239 240 575 0
239 -240 575 0
-239 -240 -575 0
241 242 -576 0
-241 242 576 0
241 -242 576 0
-241 -242 -576 0
243 244 -577 0
-243 244 577 0
243 -244 577 0
-243 -244 -577 0
245 246 -578 0
-245 246 578 0
245 -246 578 0
-245 -246 -578 0
247 248 -579 0
-247 248 579 0
247 -248 579 0
-247 -248 -579 0
249 250 -580 0
-249 250 580 0
249 -250 580 0
-249 -250 -580 0
251 252 -581 0
-251 252 581 0
251 -252 581 0
-251 -252 -581 0
253 254 -582 0
-253 254 582 0
253 -254 582 0
-253 -254 -582 0
255 256 -583 0
-255 256 583 0
255 -256 583 0
-255 -256 -583 0
257 258 -584 0
-257 258 584 0
257 -258 584 0
-257 -258 -584 0
259 260 -585 0
-259 260 585 0
259 -260 585 0
-259 -260 -585 0
261 262 -586 0
-261 262 586 0
261 -262 586 0
-261 -262 -586 0
263 264 -587 0
-263 264 587 0
263 -264 587 0
-263 -264 -587 0
265 266 -588 0
-265 266 588 0
265 -266 588 0
-265 -266 -588 0
267 268 -589 0
-267 268 589 0
267 -268 589 0
-267 -268 -589 0
269 270 -590 0
-269 270 590 0
269 -270 590 0
-269 -270 -590 0
271 272 -591 0
-271 272 591 0
271 -272 591 0
-271 -272 -591 0
273 274 -592 0
-273 274 592 0
273 -274 592 0
-273 -274 -592 0
275 276 -593 0
-275 276 593 0
275 -276 593 0
-275 -276 -593 0
277 278 -594 0
-277 278 594 0
277 -278 594 0
-277 -278 -594 0
279 280 -595 0
-279 280 595 0
279 -280 595 0
-279 -280 -595 0
281 282 -596 0
-281 282 596 0
281 -282 596 0
-281 -282 -596 0
283 284 -597 0
-283 284 597 0
283 -284 597 0
-283 -284 -597 0
285 286 -598 0
-285 286 598 0
285 -286 598 0
-285 -286 -598 0
287 288 -599 0
-287 288 599 0
287 -288 599 0
-287 -288 -599 0
289 290 -600 0
-289 290 600 0
289 -290 600 0
-289 -290 -600 0
291 292 -601 0
-291 292 601 0
291 -292 601 0
-291 -292 -601 0
293 294 -602 0
-293 294 602 0
293 -294 602 0
-293 -294 -602 0
295 296 -603 0
-295 296 603 0
295 -296 603 0
-295 -296 -603 0
297 298 -604 0
-297 298 604 0
297 -298 604 0
-297 -298 -604 0
299 300 -605 0
-299 300 605 0
299 -300 605 0
-299 -300 -605 0
301 302 -606 0
-301 302 606 0
301 -302 606 0
-301 -302 -606 0
303 304 -607 0
-303 304 607 0
303 -304 607 0
-303 -304 -607 0
305 306 -608 0
-305 306 608 0
305 -306 608 0
-305 -306 -608 0
307 308 -609 0
-307 308 609 0
307 -308 609 0
-307 -308 -609 0
309 310 -610 0
-309 310 610 0
309 -310 610 0
-309 -310 -610 0
311 312 -611 0
-311 312 611 0
311 -312 611 0
-311 -312 -611 0
313 314 -612 0
-313 314 612 0
313 -314 612 0
-313 -314 -612 0
315 316 -613 0
-315 316 613 0
315 -316 613 0
-315 -316 -613 0
317 318 -614 0
-317 318 614 0
317 -318 614 0
-317 -318 -614 0
319 320 -615 0
-319 320 615 0
319 -320 615 0
-319 -320 -615 0
321 322 -616 0
-321 322 616 0
321 -322 616 0
-321 -322 -616 0
323 324 -617 0
-323 324 617 0
323 -324 617 0
-323 -324 -617 0
325 326 -618 0
-325 326 618 0
325 -326 618 0
-325 -326 -618 0
327 328 -619 0
-327 328 619 0
327 -328 619 0
-327 -328 -619 0
329 330 -620 0
-329 330 620 0
329 -330 620 0
-329 -330 -620 0
331 332 -621 0
-331 332 621 0
331 -332 621 0
-331 -332 -621 0
333 334 -622 0
-333 334 622 0
333 -334 622 0
-333 -334 -622 0
335 336 -623 0
-335 336 623 0
335 -336 623 0
-335 -336 -623 0
337 338 -624 0
-337 338 624 0
337 -338 624 0
-337 -338 -624 0
339 340 -625 0
-339 340 625 0
339 -340 625 0
-339 -340 -625 0
341 342 -626 0
-341 342 626 0
341 -342 626 0
-341 -342 -626 0
343 344 -627 0
-343 344 627 0
343 -344 627 0
-343 -344 -627 0
345 346 -628 0
-345 346 628 0
345 -346 628 0
-345 -346 -628 0
347 348 -629 0
-347 348 629 0
347 -348 629 0
-347 -348 -629 0
349 350 -630 0
-349 350 630 0
349 -350 630 0
-349 -350 -630 0
351 352 -631 0
-351 352 631 0
351 -352 631 0
-351 -352 -631 0
353 354 -632 0
-353 354 632 0
353 -354 632 0
-353 -354 -632 0
355 356 -633 0
-355 356 633 0
355 -356 633 0
-355 -356 -633 0
357 358 -634 0
-357 358 634 0
357 -358 634 0
-357 -358 -634 0
359 360 -635 0
-359 360 635 0
359 -360 635 0
-359 -360 -635 0
361 362 -636 0
-361 362 636 0
361 -362 636 0
-361 -362 -636 0
363 364 -637 0
-363 364 637 0
363 -364 637 0
-363 -364 -637 0
365 366 -638 0
-365 366 638 0
365 -366 638 0
-365 -366 -638 0
367 368 -639 0
-367 368 639 0
367 -368 639 0
-367 -368 -639 0
369 370 -640 0
-369 370 640 0
369 -370 640 0
-369 -370 -640 0
371 372 -641 0
-371 372 641 0
371 -372 641 0
-371 -372 -641 0
373 374 -642 0
-373 374 642 0
373 -374 642 0
-373 -374 -642 0
375 376 -643 0
-375 376 643 0
375 -376 643 0
-375 -376 -643 0
377 378 -644 0
-377 378 644 0
377 -378 644 0
-377 -378 -644 0
379 380 -645 0
-379 380 645 0
379 -380 645 0
-379 -380 -645 0
381 382 -646 0
-381 382 646 0
381 -382 646 0
-381 -382 -646 0
383 384 -647 0
-383 384 647 0
383 -384 647 0
-383 -384 -647 0
385 386 -648 0
-385 386 648 0
385 -386 648 0
-385 -386 -648 0
387 388 -649 0
-387 388 649 0
387 -388 649 0
-387 -388 -649 0
389 390 -650 0
-389 390 650 0
389 -390 650 0
-389 -390 -650 0
391 392 -651 0
-391 392 651 0
391 -392 651 0
-391 -392 -651 0
393 394 -652 0
-393 394 652 0
393 -394 652 0
-393 -394 -652 0
395 396 -653 0
-395 396 653 0
395 -396 653 0
-395 -396 -653 0
397 398 -654 0
-397 398 654 0
397 -398 654 0
-397 -398 -654 0
399 400 -655 0
-399 400 655 0
399 -400 655 0
-399 -400 -655 0
401 402 -656 0
-401 402 656 0
401 -402 656 0
-401 -402 -656 0
403 404 -657 0
-403 404 657 0
403 -404 657 0
-403 -404 -657 0
405 406 -658 0
-405 406 658 0
405 -406 658 0
-405 -406 -658 0
407 408 -659 0
-407 408 659 0
407 -408 659 0
-407 -408 -659 0
409 410 -660 0
-409 410 660 0
409 -410 660 0
-409 -410 -660 0
411 412 -661 0
-411 412 661 0
411 -412 661 0
-411 -412 -661 0
413 414 -662 0
-413 414 662 0
413 -414 662 0
-413 -414 -662 0
415 416 -663 0
-415 416 663 0
415 -416 663 0
-415 -416 -663 0
417 418 -664 0
-417 418 664 0
417 -418 664 0
-417 -418 -664 0
419 420 -665 0
-419 420 665 0
419 -420 665 0
-419 -420 -665 0
421 422 -666 0
-421 422 666 0
421 -422 666 0
-421 -422 -666 0
423 424 -667 0
-423 424 667 0
423 -424 667 0
-423 -424 -667 0
425 426 -668 0
-425 426 668 0
425 -426 668 0
-425 -426 -668 0
427 428 -669 0
-427 428 669 0
427 -428 669 0
-427 -428 -669 0
429 430 -670 0
-429 430 670 0
429 -430 670 0
-429 -430 -670 0
431 432 -671 0
-431 432 671 0
431 -432 671 0
-431 -432 -671 0
433 434 -672 0
-433 434 672 0
433 -434 672 0
-433 -434 -672 0
435 436 -673 0
-435 436 673 0
435 -436 673 0
-435 -436 -673 0
437 438 -674 0
-437 438 674 0
437 -438 674 0
-437 -438 -674 0
439 440 -675 0
-439 440 675 0
439 -440 675 0
-439 -440 -675 0
441 442 -676 0
-441 442 676 0
441 -442 676 0
-441 -442 -676 0
443 444 -677 0
-443 444 677 0
443 -444 677 0
-443 -444 -677 0
445 446 -678 0
-445 446 678 0
445 -446 678 0
-445 -446 -678 0
447 448 -679 0
-447 448 679 0
447 -448 679 0
-447 -448 -679 0
449 450 -680 0
-449 450 680 0
449 -450 680 0
-449 -450 -680 0
451 452 -681 0
-451 452 681 0
451 -452 681 0
-451 -452 -681 0
456 457 -682 0
-456 457 682 0
456 -457 682 0
-456 -457 -682 0
458 459 -683 0
-458 459 683 0
458 -459 683 0
-458 -459 -683 0
460 461 -684 0
-460 461 684 0
460 -461 684 0
-460 -461 -684 0
462 463 -685 0
-462 463 685 0
462 -463 685 0
-462 -463 -685 0
464 465 -686 0
-464 465 686 0
464 -465 686 0
-464 -465 -686 0
466 467 -687 0
-466 467 687 0
466 -467 687 0
-466 -467 -687 0
468 469 -688 0
-468 469 688 0
468 -469 688 0
-468 -469 -688 0
470 471 -689 0
-470 471 689 0
470 -471 689 0
-470 -471 -689 0
472 473 -690 0
-472 473 690 0
472 -473 690 0
-472 -473 -690 0
474 475 -691 0
-474 475 691 0
474 -475 691 0
-474 -475 -691 0
476 477 -692 0
-476 477 692 0
476 -477 692 0
-476 -477 -692 0
478 479 -693 0
-478 479 693 0
478 -479 693 0
-478 -479 -693 0
480 481 -694 0
-480 481 694 0
480 -481 694 0
-480 -481 -694 0
482 483 -695 0
-482 483 695 0
482 -483 695 0
-482 -483 -695 0
484 485 -696 0
-484 485 696 0
484 -485 696 0
-484 -485 -696 0
486 487 -697 0
-486 487 697 0
486 -487 697 0
-486 -487 -697 0
488 489 -698 0
-488 489 698 0
488 -489 698 0
-488 -489 -698 0
490 491 -699 0
-490 491 699 0
490 -491 699 0
-490 -491 -699 0
492 493 -700 0
-492 493 700 0
492 -493 700 0
-492 -493 -700 0
494 495 -701 0
-494 495 701 0
494 -495 701 0
-494 -495 -701 0
496 497 -702 0
-496 497 702 0
496 -497 702 0
-496 -497 -702 0
498 499 -703 0
-498 499 703 0
498 -499 703 0
-498 -499 -703 0
500 501 -704 0
-500 501 704 0
500 -501 704 0
-500 -501 -704 0
502 503 -705 0
-502 503 705 0
502 -503 705 0
-502 -503 -705 0
504 505 -706 0
-504 505 706 0
504 -505 706 0
-504 -505 -706 0
506 507 -707 0
-506 507 707 0
506 -507 707 0
-506 -507 -707 0
508 509 -708 0
-508 509 708 0
508 -509 708 0
-508 -509 -708 0
510 511 -709 0
-510 511 709 0
510 -511 709 0
-510 -511 -709 0
512 513 -710 0
-512 513 710 0
512 -513 710 0
-512 -513 -710 0
514 515 -711 0
-514 515 711 0
514 -515 711 0
-514 -515 -711 0
516 517 -712 0
-516 517 712 0
516 -517 712 0
-516 -517 -712 0
518 519 -713 0
-518 519 713 0
518 -519 713 0
-518 -519 -713 0
520 521 -714 0
-520 521 714 0
520 -521 714 0
-520 -521 -714 0
522 523 -715 0
-522 523 715 0
522 -523 715 0
-522 -523 -715 0
524 525 -716 0
-524 525 716 0
524 -525 716 0
-524 -525 -716 0
526 527 -717 0
-526 527 717 0
526 -527 717 0
-526 -527 -717 0
528 529 -718 0
-528 529 718 0
528 -529 718 0
-528 -529 -718 0
530 531 -719 0
-530 531 719 0
530 -531 719 0
-530 -531 -719 0
532 533 -720 0
-532 533 720 0
532 -533 720 0
-532 -533 -720 0
534 535 -721 0
-534 535 721 0
534 -535 721 0
-534 -535 -721 0
536 537 -722 0
-536 537 722 0
536 -537 722 0
-536 -537 -722 0
538 539 -723 0
-538 539 723 0
538 -539 723 0
-538 -539 -723 0
540 541 -724 0
-540 541 724 0
540 -541 724 0
-540 -541 -724 0
542 543 -725 0
-542 543 725 0
542 -543 725 0
-542 -543 -725 0
544 545 -726 0
-544 545 726 0
544 -545 726 0
-544 -545 -726 0
546 547 -727 0
-546 547 727 0
546 -547 727 0
-546 -547 -727 0
548 549 -728 0
-548 549 728 0
548 -549 728 0
-548 -549 -728 0
550 551 -729 0
-550 551 729 0
550 -551 729 0
-550 -551 -729 0
552 553 -730 0
-552 553 730 0
552 -553 730 0
-552 -553 -730 0
554 555 -731 0
-554 555 731 0
554 -555 731 0
-554 -555 -731 0
556 557 -732 0
-556 557 732 0
556 -557 732 0
-556 -557 -732 0
558 559 -733 0
-558 559 733 0
558 -559 733 0
-558 -559 -733 0
560 561 -734 0
-560 561 734 0
560 -561 734 0
-560 -561 -734 0
562 563 -735 0
-562 563 735 0
562 -563 735 0
-562 -563 -735 0
564 565 -736 0
-564 565 736 0
564 -565 736 0
-564 -565 -736 0
566 567 -737 0
-566 567 737 0
566 -567 737 0
-566 -567 -737 0
568 569 -738 0
-568 569 738 0
568 -569 738 0
-568 -569 -738 0
570 571 -739 0
-570 571 739 0
570 -571 739 0
-570 -571 -739 0
572 573 -740 0
-572 573 740 0
572 -573 740 0
-572 -573 -740 0
574 575 -741 0
-574 575 741 0
574 -575 741 0
-574 -575 -741 0
576 577 -742 0
-576 577 742 0
576 -577 742 0
-576 -577 -742 0
578 579 -743 0
-578 579 743 0
578 -579 743 0
-578 -579 -743 0
580 581 -744 0
-580 581 744 0
580 -581 744 0
-580 -581 -744 0
582 583 -745 0
-582 583 745 0
582 -583 745 0
-582 -583 -745 0
584 585 -746 0
-584 585 746 0
584 -585 746 0
-584 -585 -746 0
586 587 -747 0
-586 587 747 0
586 -587 747 0
-586 -587 -747 0
588 589 -748 0
-588 589 748 0
588 -589 748 0
-588 -589 -748 0
590 591 -749 0
-590 591 749 0
590 -591 749 0
-590 -591 -749 0
592 593 -750 0
-592 593 750 0
592 -593 750 0
-592 -593 -750 0
594 595 -751 0
-594 595 751 0
594 -595 751 0
-594 -595 -751 0
596 597 -752 0
-596 597 752 0
596 -597 752 0
-596 -597 -752 0
598 599 -753 0
-598 599 753 0
598 -599 753 0
-598 -599 -753 0
600 601 -754 0
-600 601 754 0
600 -601 754 0
-600 -601 -754 0
602 603 -755 0
-602 603 755 0
602 -603 755 0
-602 -603 -755 0
604 605 -756 0
-604 605 756 0
604 -605 756 0
-604 -605 -756 0
606 607 -757 0
-606 607 757 0
606 -607 757 0
-606 -607 -757 0
608 609 -758 0
-608 609 758 0
608 -609 758 0
-608 -609 -758 0
610 611 -759 0
-610 611 759 0
610 -611 759 0
-610 -611 -759 0
612 613 -760 0
-612 613 760 0
612 -613 760 0
-612 -613 -760 0
614 615 -761 0
-614 615 761 0
614 -615 761 0
-614 -615 -761 0
616 617 -762 0
-616 617 762 0
616 -617 762 0
-616 -617 -762 0
618 619 -763 0
-618 619 763 0
618 -619 763 0
-618 -619 -763 0
620 621 -764 0
-620 621 764 0
620 -621 764 0
-620 -621 -764 0
622 623 -765 0
-622 623 765 0
622 -623 765 0
-622 -623 -765 0
624 625 -766 0
-624 625 766 0
624 -625 766 0
-624 -625 -766 0
626 627 -767 0
-626 627 767 0
626 -627 767 0
-626 -627 -767 0
628 629 -768 0
-628 629 768 0
628 -629 768 0
-628 -629 -768 0
630 631 -769 0
-630 631 769 0
630 -631 769 0
-630 -631 -769 0
632 633 -770 0
-632 633 770 0
632 -633 770 0
-632 -633 -770 0
634 635 -771 0
-634 635 771 0
634 -635 771 0
-634 -635 -771 0
636 637 -772 0
-636 637 772 0
636 -637 772 0
-636 -637 -772 0
638 639 -773 0
-638 639 773 0
638 -639 773 0
-638 -639 -773 0
640 641 -774 0
-640 641 774 0
640 -641 774 0
-640 -641 -774 0
642 643 -775 0
-642 643 775 0
642 -643 775 0
-642 -643 -775 0
644 645 -776 0
-644 645 776 0
644 -645 776 0
-644 -645 -776 0
646 647 -777 0
-646 647 777 0
646 -647 777 0
-646 -647 -777 0
648 649 -778 0
-648 649 778 0
648 -649 778 0
-648 -649 -778 0
650 651 -779 0
-650 651 779 0
650 -651 779 0
-650 -651 -779 0
652 653 -780 0
-652 653 780 0
652 -653 780 0
-652 -653 -780 0
654 655 -781 0
-654 655 781 0
654 -655 781 0
-654 -655 -781 0
656 657 -782 0
-656 657 782 0
656 -657 782 0
-656 -657 -782 0
658 659 -783 0
-658 659 783 0
658 -659 783 0
-658 -659 -783 0
660 661 -784 0
-660 661 784 0
660 -661 784 0
-660 -661 -784 0
662 663 -785 0
-662 663 785 0
662 -663 785 0
-662 -663 -785 0
664 665 -786 0
-664 665 786 0
664 -665 786 0
-664 -665 -786 0
666 667 -787 0
-666 667 787 0
666 -667 787 0
-666 -667 -787 0
668 669 -788 0
-668 669 788 0
668 -669 788 0
-668 -669 -788 0
670 671 -789 0
-670 671 789 0
670 -671 789 0
-670 -671 -789 0
672 673 -790 0
-672 673 790 0
672 -673 790 0
-672 -673 -790 0
674 675 -791 0
-674 675 791 0
674 -675 791 0
-674 -675 -791 0
676 677 -792 0
-676 677 792 0
676 -677 792 0
-676 -677 -792 0
678 679 -793 0
-678 679 793 0
678 -679 793 0
-678 -679 -793 0
680 681 -794 0
-680 681 794 0
680 -681 794 0
-680 -681 -794 0
682 683 -795 0
-682 683 795 0
682 -683 795 0
-682 -683 -795 0
684 685 -796 0
-684 685 796 0
684 -685 796 0
-684 -685 -796 0
686 687 -797 0
-686 687 797 0
686 -687 797 0
-686 -687 -797 0
688 689 -798 0
-688 689 798 0
688 -689 798 0
-688 -689 -798 0
690 691 -799 0
-690 691 799 0
690 -691 799 0
-690 -691 -799 0
692 693 -800 0
-692 693 800 0
692 -693 800 0
-692 -693 -800 0
694 695 -801 0
-694 695 801 0
694 -695 801 0
-694 -695 -801 0
696 697 -802 0
-696 697 802 0
696 -697 802 0
-696 -697 -802 0
698 699 -803 0
-698 699 803 0
698 -699 803 0
-698 -699 -803 0
700 701 -804 0
-700 701 804 0
700 -701 804 0
-700 -701 -804 0
702 703 -805 0
-702 703 805 0
702 -703 805 0
-702 -703 -805 0
704 705 -806 0
-704 705 806 0
704 -705 806 0
-704 -705 -806 0
706 707 -807 0
-706 707 807 0
706 -707 807 0
-706 -707 -807 0
708 709 -808 0
-708 709 808 0
708 -709 808 0
-708 -709 -808 0
710 711 -809 0
-710 711 809 0
710 -711 809 0
-710 -711 -809 0
712 713 -810 0
-712 713 810 0
712 -713 810 0
-712 -713 -810 0
714 715 -811 0
-714 715 811 0
714 -715 811 0
-714 -715 -811 0
716 717 -812 0
-716 717 812 0
716 -717 812 0
-716 -717 -812 0
718 719 -813 0
-718 719 813 0
718 -719 813 0
-718 -719 -813 0
720 721 -814 0
-720 721 814 0
720 -721 814 0
-720 -721 -814 0
722 723 -815 0
-722 723 815 0
722 -723 815 0
-722 -723 -815 0
724 725 -816 0
-724 725 816 0
724 -725 816 0
-724 -725 -816 0
726 727 -817 0
-726 727 817 0
726 -727 817 0
-726 -727 -817 0
728 729 -818 0
-728 729 818 0
728 -729 818 0
-728 -729 -818 0
730 731 -819 0
-730 731 819 0
730 -731 819 0
-730 -731 -819 0
732 733 -820 0
-732 733 820 0
732 -733 820 0
-732 -733 -820 0
734 735 -821 0
-734 735 821 0
734 -735 821 0
-734 -735 -821 0
736 737 -822 0
-736 737 822 0
736 -737 822 0
-736 -737 -822 0
738 739 -823 0
-738 739 823 0
738 -739 823 0
-738 -739 -823 0
740 741 -824 0
-740 741 824 0
740 -741 824 0
-740 -741 -824 0
742 743 -825 0
-742 743 825 0
742 -743 825 0
-742 -743 -825 0
744 745 -826 0
-744 745 826 0
744 -745 826 0
-744 -745 -826 0
746 747 -827 0
-746 747 827 0
746 -747 827 0
-746 -747 -827 0
748 749 -828 0
-748 749 828 0
748 -749 828 0
-748 -749 -828 0
750 751 -829 0
-750 751 829 0
750 -751 829 0
-750 -751 -829 0
752 753 -830 0
-752 753 830 0
752 -753 830 0
-752 -753 -830 0
754 755 -831 0
-754 755 831 0
754 -755 831 0
-754 -755 -831 0
756 757 -832 0
-756 757 832 0
756 -757 832 0
-756 -757 -832 0
758 759 -833 0
-758 759 833 0
758 -759 833 0
-758 -759 -833 0
760 761 -834 0
-760 761 834 0
760 -761 834 0
-760 -761 -834 0
762 763 -835 0
-762 763 835 0
762 -763 835 0
-762 -763 -835 0
764 765 -836 0
-764 765 836 0
764 -765 836 0
-764 -765 -836 0
766 767 -837 0
-766 767 837 0
766 -767 837 0
-766 -767 -837 0
768 769 -838 0
-768 769 838 0
768 -769 838 0
-768 -769 -838 0
770 771 -839 0
-770 771 839 0
770 -771 839 0
-770 -771 -839 0
772 773 -840 0
-772 773 840 0
772 -773 840 0
-772 -773 -840 0
774 775 -841 0
-774 775 841 0
774 -775 841 0
-774 -775 -841 0
776 777 -842 0
-776 777 842 0
776 -777 842 0
-776 -777 -842 0
778 779 -843 0
-778 779 843 0
778 -779 843 0
-778 -779 -843 0
780 781 -844 0
-780 781 844 0
780 -781 844 0
-780 -781 -844 0
782 783 -845 0
-782 783 845 0
782 -783 845 0
-782 -783 -845 0
784 785 -846 0
-784 785 846 0
784 -785 846 0
-784 -785 -846 0
786 787 -847 0
-786 787 847 0
786 -787 847 0
-786 -787 -847 0
788 789 -848 0
-788 789 848 0
788 -789 848 0
-788 -789 -848 0
790 791 -849 0
-790 791 849 0
790 -791 849 0
-790 -791 -849 0
792 793 -850 0
-792 793 850 0
792 -793 850 0
-792 -793 -850 0
795 796 -851 0
-795 796 851 0
795 -796 851 0
-795 -796 -851 0
797 798 -852 0
-797 798 852 0
797 -798 852 0
-797 -798 -852 0
799 800 -853 0
-799 800 853 0
799 -800 853 0
-799 -800 -853 0
801 802 -854 0
-801 802 854 0
801 -802 854 0
-801 -802 -854 0
803 804 -855 0
-803 804 855 0
803 -804 855 0
-803 -804 -855 0
805 806 -856 0
-805 806 856 0
805 -806 856 0
-805 -806 -856 0
807 808 -857 0
-807 808 857 0
807 -808 857 0
-807 -808 -857 0
809 810 -858 0
-809 810 858 0
809 -810 858 0
-809 -810 -858 0
811 812 -859 0
-811 812 859 0
811 -812 859 0
-811 -812 -859 0
813 814 -860 0
-813 814 860 0
813 -814 860 0
-813 -814 -860 0
815 816 -861 0
-815 816 861 0
815 -816 861 0
-815 -816 -861 0
817 818 -862 0
-817 818 862 0
817 -818 862 0
-817 -818 -862 0
819 820 -863 0
-819 820 863 0
819 -820 863 0
-819 -820 -863 0
821 822 -864 0
-821 822 864 0
821 -822 864 0
-821 -822 -864 0
823 824 -865 0
-823 824 865 0
823 -824 865 0
-823 -824 -865 0
825 826 -866 0
-825 826 866 0
825 -826 866 0
-825 -826 -866 0
827 828 -867 0
-827 828 867 0
827 -828 867 0
-827 -828 -867 0
829 830 -868 0
-829 830 868 0
829 -830 868 0
-829 -830 -868 0
831 832 -869 0
-831 832 869 0
831 -832 869 0
-831 -832 -869 0
833 834 -870 0
-833 834 870 0
833 -834 870 0
-833 -834 -870 0
835 836 -871 0
-835 836 871 0
835 -836 871 0
-835 -836 -871 0
837 838 -872 0
-837 838 872 0
837 -838 872 0
-837 -838 -872 0
839 840 -873 0
-839 840 873 0
839 -840 873 0
-839 -840 -873 0
841 842 -874 0
-841 842 874 0
841 -842 874 0
-841 -842 -874 0
843 844 -875 0
-843 844 875 0
843 -844 875 0
-843 -844 -875 0
845 846 -876 0
-845 846 876 0
845 -846 876 0
-845 -846 -876 0
847 848 -877 0
-847 848 877 0
847 -848 877 0
-847 -848 -877 0
849 850 -878 0
-849 850 878 0
849 -850 878 0
-849 -850 -878 0
851 852 -879 0
-851 852 879 0
851 -852 879 0
-851 -852 -879 0
853 854 -880 0
-853 854 880 0
853 -854 880 0
-853 -854 -880 0
855 856 -881 0
-855 856 881 0
855 -856 881 0
-855 -856 -881 0
857 858 -882 0
-857 858 882 0
857 -858 882 0
-857 -858 -882 0
859 860 -883 0
-859 860 883 0
859 -860 883 0
-859 -860 -883 0
861 862 -884 0
-861 862 884 0
861 -862 884 0
-861 -862 -884 0
863 864 -885 0
-863 864 885 0
863 -864 885 0
-863 -864 -885 0
865 866 -886 0
-865 866 886 0
865 -866 886 0
-865 -866 -886 0
867 868 -887 0
-867 868 887 0
867 -868 887 0
-867 -868 -887 0
869 870 -888 0
-869 870 888 0
869 -870 888 0
-869 -870 -888 0
871 872 -889 0
-871 872 889 0
871 -872 889 0
-871 -872 -889 0
873 874 -890 0
-873 874 890 0
873 -874 890 0
-873 -874 -890 0
875 876 -891 0
-875 876 891 0
875 -876 891 0
-875 -876 -891 0
877 878 -892 0
-877 878 892 0
877 -878 892 0
-877 -878 -892 0
879 880 -893 0
-879 880 893 0
879 -880 893 0
-879 -880 -893 0
881 882 -894 0
-881 882 894 0
881 -882 894 0
-881 -882 -894 0
883 884 -895 0
-883 884 895 0
883 -884 895 0
-883 -884 -895 0
885 886 -896 0
-885 886 896 0
885 -886 896 0
-885 -886 -896 0
887 888 -897 0
-887 888 897 0
887 -888 897 0
-887 -888 -897 0
889 890 -898 0
-889 890 898 0
889 -890 898 0
-889 -890 -898 0
891 892 -899 0
-891 892 899 0
891 -892 899 0
-891 -892 -899 0
893 894 -900 0
-893 894 900 0
893 -894 900 0
-893 -894 -900 0
895 896 -901 0
-895 896 901 0
895 -896 901 0
-895 -896 -901 0
897 898 -902 0
-897 898 902 0
897 -898 902 0
-897 -898 -902 0
899 794 -903 0
-899 794 903 0
899 -794 903 0
-899 -794 -903 0
900 901 -904 0
-900 901 904 0
900 -901 904 0
-900 -901 -904 0
902 903 -905 0
-902 903 905 0
902 -903 905 0
-902 -903 -905 0
904 905 -453 0
-904 905 453 0
904 -905 453 0
-904 -905 -453 0
